(set-info :smt-lib-version 2.6)
(set-logic QF_NIA)
(set-info :source |
     Constraint systems stating that a matrix interpretation is
     compatible with a rewriting system (weakly compatible with
     all rules, strictly compatible with at least one).

     Contributed by Johannes Waldmann at HTKW Leipzig.
   |)
(set-info :category "crafted")
(set-info :status sat)
(declare-fun n0 () Int)
(assert (>= n0 0))
(declare-fun n1 () Int)
(assert (>= n1 0))
(declare-fun n2 () Int)
(assert (>= n2 0))
(declare-fun n3 () Int)
(assert (>= n3 0))
(declare-fun n4 () Int)
(assert (>= n4 0))
(declare-fun n5 () Int)
(assert (>= n5 0))
(declare-fun n6 () Int)
(assert (>= n6 0))
(declare-fun n7 () Int)
(assert (>= n7 0))
(declare-fun n8 () Int)
(assert (>= n8 0))
(declare-fun n9 () Int)
(assert (>= n9 0))
(declare-fun n10 () Int)
(assert (>= n10 0))
(declare-fun n11 () Int)
(assert (>= n11 0))
(declare-fun n12 () Int)
(assert (>= n12 0))
(declare-fun n13 () Int)
(assert (>= n13 0))
(declare-fun n14 () Int)
(assert (>= n14 0))
(declare-fun n15 () Int)
(assert (>= n15 0))
(declare-fun n16 () Int)
(assert (= n16 (* n15 n10)))
(declare-fun n17 () Int)
(assert (= n17 (+ n14 n16)))
(declare-fun n18 () Int)
(assert (= n18 (* n15 n11)))
(declare-fun n19 () Int)
(assert (= n19 (* n15 n12)))
(declare-fun n20 () Int)
(assert (= n20 (+ n14 n19)))
(declare-fun n21 () Int)
(assert (= n21 (* n15 n13)))
(declare-fun n22 () Int)
(assert (= n22 (* n5 n17)))
(declare-fun n23 () Int)
(assert (= n23 (+ n4 n22)))
(declare-fun n24 () Int)
(assert (= n24 (* n5 n18)))
(declare-fun n25 () Int)
(assert (= n25 (* n11 n10)))
(declare-fun n26 () Int)
(assert (= n26 (+ n10 n25)))
(declare-fun n27 () Int)
(assert (= n27 (* n11 n11)))
(declare-fun n28 () Int)
(assert (= n28 (* n5 n14)))
(declare-fun n29 () Int)
(assert (= n29 (+ n4 n28)))
(declare-fun n30 () Int)
(assert (= n30 (* n5 n15)))
(assert (>= n29 n4))
(assert (>= n30 n5))
(declare-fun n31 () Int)
(assert (= n31 (* n5 n12)))
(declare-fun n32 () Int)
(assert (= n32 (+ n4 n31)))
(declare-fun n33 () Int)
(assert (= n33 (* n5 n13)))
(assert (>= n23 n32))
(assert (>= n24 n33))
(assert (>= n23 n4))
(assert (>= n24 n5))
(declare-fun n34 () Int)
(assert (= n34 (* n5 n10)))
(declare-fun n35 () Int)
(assert (= n35 (+ n4 n34)))
(declare-fun n36 () Int)
(assert (= n36 (* n5 n11)))
(declare-fun n37 () Int)
(assert (= n37 (* n7 n8)))
(declare-fun n38 () Int)
(assert (= n38 (+ n6 n37)))
(declare-fun n39 () Int)
(assert (= n39 (* n7 n9)))
(assert (>= n35 n38))
(assert (>= n36 n39))
(declare-fun n40 () Int)
(assert (= n40 (* n13 n14)))
(declare-fun n41 () Int)
(assert (= n41 (+ n12 n40)))
(declare-fun n42 () Int)
(assert (= n42 (* n13 n15)))
(assert (>= n41 n20))
(assert (>= n42 n21))
(declare-fun n43 () Int)
(assert (= n43 (* n13 n17)))
(declare-fun n44 () Int)
(assert (= n44 (+ n12 n43)))
(declare-fun n45 () Int)
(assert (= n45 (* n13 n18)))
(declare-fun n46 () Int)
(assert (= n46 (* n21 n12)))
(declare-fun n47 () Int)
(assert (= n47 (+ n20 n46)))
(declare-fun n48 () Int)
(assert (= n48 (* n21 n13)))
(assert (>= n44 n47))
(assert (>= n45 n48))
(declare-fun n49 () Int)
(assert (= n49 (* n27 n10)))
(declare-fun n50 () Int)
(assert (= n50 (+ n26 n49)))
(declare-fun n51 () Int)
(assert (= n51 (* n27 n11)))
(assert (>= n20 n50))
(assert (>= n21 n51))
(declare-fun n52 () Int)
(assert (= n52 (* n13 n10)))
(declare-fun n53 () Int)
(assert (= n53 (+ n12 n52)))
(declare-fun n54 () Int)
(assert (= n54 (* n13 n11)))
(declare-fun n55 () Int)
(assert (= n55 (* n15 n8)))
(declare-fun n56 () Int)
(assert (= n56 (+ n14 n55)))
(declare-fun n57 () Int)
(assert (= n57 (* n15 n9)))
(assert (>= n53 n56))
(assert (>= n54 n57))
(assert (or (> n29 n4) (> n23 n32) (> n23 n4) (> n35 n38)))
(assert (<= n0 100))
(assert (<= n1 100))
(assert (<= n10 100))
(assert (<= n11 100))
(assert (<= n12 100))
(assert (<= n13 100))
(assert (<= n14 100))
(assert (<= n15 100))
(assert (<= 0 n16))
(assert (<= n16 100))
(assert (<= 0 n17))
(assert (<= n17 100))
(assert (<= 0 n18))
(assert (<= n18 100))
(assert (<= 0 n19))
(assert (<= n19 100))
(assert (<= n2 100))
(assert (<= 0 n20))
(assert (<= n20 100))
(assert (<= 0 n21))
(assert (<= n21 100))
(assert (<= 0 n22))
(assert (<= n22 100))
(assert (<= 0 n23))
(assert (<= n23 100))
(assert (<= 0 n24))
(assert (<= n24 100))
(assert (<= 0 n25))
(assert (<= n25 100))
(assert (<= 0 n26))
(assert (<= n26 100))
(assert (<= 0 n27))
(assert (<= n27 100))
(assert (<= 0 n28))
(assert (<= n28 100))
(assert (<= 0 n29))
(assert (<= n29 100))
(assert (<= n3 100))
(assert (<= 0 n30))
(assert (<= n30 100))
(assert (<= 0 n31))
(assert (<= n31 100))
(assert (<= 0 n32))
(assert (<= n32 100))
(assert (<= 0 n33))
(assert (<= n33 100))
(assert (<= 0 n34))
(assert (<= n34 100))
(assert (<= 0 n35))
(assert (<= n35 100))
(assert (<= 0 n36))
(assert (<= n36 100))
(assert (<= 0 n37))
(assert (<= n37 100))
(assert (<= 0 n38))
(assert (<= n38 100))
(assert (<= 0 n39))
(assert (<= n39 100))
(assert (<= n4 100))
(assert (<= 0 n40))
(assert (<= n40 100))
(assert (<= 0 n41))
(assert (<= n41 100))
(assert (<= 0 n42))
(assert (<= n42 100))
(assert (<= 0 n43))
(assert (<= n43 100))
(assert (<= 0 n44))
(assert (<= n44 100))
(assert (<= 0 n45))
(assert (<= n45 100))
(assert (<= 0 n46))
(assert (<= n46 100))
(assert (<= 0 n47))
(assert (<= n47 100))
(assert (<= 0 n48))
(assert (<= n48 100))
(assert (<= 0 n49))
(assert (<= n49 100))
(assert (<= n5 100))
(assert (<= 0 n50))
(assert (<= n50 100))
(assert (<= 0 n51))
(assert (<= n51 100))
(assert (<= 0 n52))
(assert (<= n52 100))
(assert (<= 0 n53))
(assert (<= n53 100))
(assert (<= 0 n54))
(assert (<= n54 100))
(assert (<= 0 n55))
(assert (<= n55 100))
(assert (<= 0 n56))
(assert (<= n56 100))
(assert (<= 0 n57))
(assert (<= n57 100))
(assert (<= n6 100))
(assert (<= n7 100))
(assert (<= n8 100))
(assert (<= n9 100))
(check-sat)
(exit)
